p tdp 119 214
1 18
1 2
2 19
2 3
3 20
3 4
4 21
4 5
5 22
5 6
6 23
6 7
7 24
7 8
8 25
8 9
9 26
9 10
10 27
10 11
11 28
11 12
12 29
12 13
13 30
13 14
14 31
14 15
15 32
15 16
16 33
16 17
17 34
18 35
18 19
19 36
19 20
20 37
20 21
21 38
21 22
22 39
22 23
23 40
23 24
24 41
24 25
25 42
25 26
26 43
26 27
27 44
27 28
28 45
28 29
29 46
29 30
30 47
30 31
31 48
31 32
32 49
32 33
33 50
33 34
34 51
35 52
35 36
36 53
36 37
37 54
37 38
38 55
38 39
39 56
39 40
40 57
40 41
41 58
41 42
42 59
42 43
43 60
43 44
44 61
44 45
45 62
45 46
46 63
46 47
47 64
47 48
48 65
48 49
49 66
49 50
50 67
50 51
51 68
52 69
52 53
53 70
53 54
54 71
54 55
55 72
55 56
56 73
56 57
57 74
57 58
58 75
58 59
59 76
59 60
60 77
60 61
61 78
61 62
62 79
62 63
63 80
63 64
64 81
64 65
65 82
65 66
66 83
66 67
67 84
67 68
68 85
69 86
69 70
70 87
70 71
71 88
71 72
72 89
72 73
73 90
73 74
74 91
74 75
75 92
75 76
76 93
76 77
77 94
77 78
78 95
78 79
79 96
79 80
80 97
80 81
81 98
81 82
82 99
82 83
83 100
83 84
84 101
84 85
85 102
86 103
86 87
87 104
87 88
88 105
88 89
89 106
89 90
90 107
90 91
91 108
91 92
92 109
92 93
93 110
93 94
94 111
94 95
95 112
95 96
96 113
96 97
97 114
97 98
98 115
98 99
99 116
99 100
100 117
100 101
101 118
101 102
102 119
103 104
104 105
105 106
106 107
107 108
108 109
109 110
110 111
111 112
112 113
113 114
114 115
115 116
116 117
117 118
118 119
